!   File created by the GAMESS Input Deck Generator Plugin for Avogadro
 $BASIS GBASIS=N31 NGAUSS=6 NDFUNC=1 NPFUNC=1 $END
 $CONTRL SCFTYP=UHF RUNTYP=ENERGY ICHARG=1 MULT=2 $END
 $CONTRL COORD=ZMT UNITS=BOHR NPRINT=9 $END
 $DATA 
Title
Dnv 2
H
H 1 1.4
 $END
