!   File created by the GAMESS Input Deck Generator Plugin for Avogadro
 $BASIS GBASIS=N31 NGAUSS=6 NDFUNC=1 NPFUNC=1 $END
 $CONTRL SCFTYP=MCSCF RUNTYP=ENERGY CITYP=GENCI $END
 $CONTRL COORD=ZMT UNITS=BOHR NPRINT=3 $END
 $DET NCORE=0 NACT=2 NELS=2 NSTATE=4 $END
 $CIGEN NCORE=0 NACT=2 NELS=2 NSTATE=4 $END
 $GUESS GUESS=MOREAD NORB=10 $END
 $GCILST
3
2 0
1 1
0 2
 $END
 $VEC   
 1  1 2.19960982E-01 4.80716558E-01-0.00000000E+00-0.00000000E+00 6.44671152E-03
 1  2 2.19960982E-01 4.80716558E-01-0.00000000E+00-0.00000000E+00-6.44671152E-03
 2  1-2.34254865E-01-6.18413612E-01-0.00000000E+00-0.00000000E+00 9.61249610E-03
 2  2 2.34254865E-01 6.18413612E-01-0.00000000E+00-0.00000000E+00 9.61249610E-03
 3  1 9.03370282E-01-6.69333877E-01 0.00000000E+00 0.00000000E+00-2.96884061E-02
 3  2 9.03370282E-01-6.69333877E-01 0.00000000E+00 0.00000000E+00 2.96884061E-02
 4  1 9.32353590E-01-9.39072164E-01-0.00000000E+00-0.00000000E+00 4.17162037E-02
 4  2-9.32353590E-01 9.39072164E-01-0.00000000E+00-0.00000000E+00 4.17162037E-02
 5  1-7.54062558E-02 8.96454821E-02-0.00000000E+00-0.00000000E+00-7.07258689E-01
 5  2-7.54062558E-02 8.96454821E-02-0.00000000E+00-0.00000000E+00 7.07258689E-01
 6  1 0.00000000E+00 0.00000000E+00-1.33222296E-01 6.94389275E-01 0.00000000E+00
 6  2 0.00000000E+00 0.00000000E+00-1.33222296E-01 6.94389275E-01 0.00000000E+00
 7  1 0.00000000E+00 0.00000000E+00 6.94389275E-01 1.33222296E-01 0.00000000E+00
 7  2 0.00000000E+00 0.00000000E+00 6.94389275E-01 1.33222296E-01 0.00000000E+00
 8  1-0.00000000E+00-0.00000000E+00-6.94709896E-01-1.32111841E-01-0.00000000E+00
 8  2-0.00000000E+00-0.00000000E+00 6.94709896E-01 1.32111841E-01-0.00000000E+00
 9  1 0.00000000E+00 0.00000000E+00 1.32111841E-01-6.94709896E-01 0.00000000E+00
 9  2 0.00000000E+00 0.00000000E+00-1.32111841E-01 6.94709896E-01 0.00000000E+00
10  1-1.12088674E-01 1.72386849E-01-0.00000000E+00-0.00000000E+00 7.09959364E-01
10  2 1.12088674E-01-1.72386849E-01-0.00000000E+00-0.00000000E+00 7.09959364E-01
 $END  
 $DATA 
Title
C1
H
H 1 4.0
 $END
