!   File created by the GAMESS Input Deck Generator Plugin for Avogadro
 $BASIS GBASIS=N31 NGAUSS=6 NDFUNC=1 NPFUNC=1 $END
 $CONTRL SCFTYP=RHF RUNTYP=ENERGY $END
 $CONTRL COORD=ZMT UNITS=BOHR NPRINT=9 $END
 $DATA 
Title
C1
H
H 1 4.0
 $END
