 $BASIS GBASIS=N31 NGAUSS=6 NDFUNC=1 NPFUNC=1 $END
 $CONTRL SCFTYP=MCSCF RUNTYP=ENERGY CITYP=GENCI $END
 $CONTRL COORD=ZMT UNITS=BOHR NPRINT=3 $END
 $DET NCORE=0 NACT=2 NELS=2 NSTATE=4 $END
 $CIGEN NCORE=0 NACT=2 NELS=2 NSTATE=4 $END
 $GUESS GUESS=MOREAD NORB=10 $END
 $GCILST
3
2 0
1 1
0 2
 $END
 $VEC
