!   File created by the GAMESS Input Deck Generator Plugin for Avogadro
 $BASIS GBASIS=N31 NGAUSS=6 NDFUNC=1 NPFUNC=1 $END
 $CONTRL SCFTYP=MCSCF RUNTYP=ENERGY CITYP=GENCI ICHARG=1 MULT=2 $END
 $CONTRL COORD=ZMT UNITS=BOHR NPRINT=3 $END
 $DET NCORE=0 NACT=4 NELS=1 $END
 $CIGEN NCORE=0 NACT=4 NELS=1 $END
 $GUESS GUESS=MOREAD NORB=10 $END
 $GCILST
10
2 0 0 0
1 1 0 0
1 0 1 0
1 0 0 1
0 2 0 0
0 1 1 0
0 1 0 1
0 0 2 0
0 0 1 1
0 0 0 2
 $END
 $VEC   
 1  1 4.25068997E-01 1.67559781E-01-0.00000000E+00-0.00000000E+00 3.74973989E-02
 1  2 4.25068997E-01 1.67559781E-01-0.00000000E+00-0.00000000E+00-3.74973989E-02
 2  1 2.57164037E-01 1.49863583E+00 0.00000000E+00 0.00000000E+00-2.80405093E-02
 2  2-2.57164037E-01-1.49863583E+00 0.00000000E+00 0.00000000E+00-2.80405093E-02
 3  1-6.71932429E-01 7.06125261E-01 0.00000000E+00 0.00000000E+00-5.42001909E-02
 3  2-6.71932429E-01 7.06125261E-01 0.00000000E+00 0.00000000E+00 5.42001909E-02
 4  1-8.94261195E-01 1.62292002E+00 0.00000000E+00 0.00000000E+00 2.35666443E-01
 4  2 8.94261195E-01-1.62292002E+00 0.00000000E+00 0.00000000E+00 2.35666443E-01
 5  1-0.00000000E+00-0.00000000E+00 5.54737898E-01-2.55584667E-01-0.00000000E+00
 5  2-0.00000000E+00-0.00000000E+00 5.54737898E-01-2.55584667E-01-0.00000000E+00
 6  1-0.00000000E+00-0.00000000E+00 2.55584667E-01 5.54737898E-01-0.00000000E+00
 6  2-0.00000000E+00-0.00000000E+00 2.55584667E-01 5.54737898E-01-0.00000000E+00
 7  1 4.18136068E-01-2.07001641E-01-0.00000000E+00-0.00000000E+00-6.45378788E-01
 7  2 4.18136068E-01-2.07001641E-01-0.00000000E+00-0.00000000E+00 6.45378788E-01
 8  1-0.00000000E+00-0.00000000E+00-4.58897933E-01 7.39800438E-01-0.00000000E+00
 8  2-0.00000000E+00-0.00000000E+00 4.58897933E-01-7.39800438E-01-0.00000000E+00
 9  1 0.00000000E+00 0.00000000E+00-7.39800438E-01-4.58897933E-01 0.00000000E+00
 9  2 0.00000000E+00 0.00000000E+00 7.39800438E-01 4.58897933E-01 0.00000000E+00
10  1 1.41992244E+00 1.96752872E-01 0.00000000E+00 0.00000000E+00 1.58378842E+00
10  2-1.41992244E+00-1.96752872E-01 0.00000000E+00 0.00000000E+00 1.58378842E+00
 $END  
 $DATA 
Title
C1
H
H 1 1.4
 $END
