 $BASIS GBASIS=N31 NGAUSS=6 NDFUNC=1 NPFUNC=1 $END
 $CONTRL SCFTYP=MCSCF RUNTYP=ENERGY CITYP=GENCI ICHARG=1 MULT=2 $END
 $CONTRL COORD=ZMT UNITS=BOHR NPRINT=3 $END
 $DET NCORE=0 NACT=2 NELS=1 NSTATE=2 $END
 $CIGEN NCORE=0 NACT=2 NELS=1 NSTATE=2 $END
 $GUESS GUESS=HCORE $END
 $GCILST
2
1 0
0 1
 $END
 $DATA
TITLE
C1
H
H 1 1.4
 $END
